n = 30;
f = 9;
s = 1000;
r = 5000;
l = 20;
forbidden = [| 2, 2
             | 2, 4
             | 3, 1
             | 3, 2
             | 3, 4
             | 3, 5
             | 5, 5
             | 6, 1
             | 6, 5 
|];
